5 STP File, STP Format Version 1.0

SECTION Comment
Name    "B01"
Creator "J. E. Beasley"
Remark  "Sparse graph with random weights"
END

SECTION Graph
Nodes 10
Edges 14
E 1 6 343
E 2 7 954
E 2 6 879
E 3 6 1054
E 3 5 1364
E 4 7 433
E 5 6 1106
E 9 1 464
E 1 8 1435
E 2 8 811
E 7 8 837
E 5 10 766
E 4 10 1053
E 2 10 524